<number of tasks>
20

<cycle time>
1000

<order strength>
0,511


<task times>
1 162
2 68
3 88
4 282
5 109
6 59
7 193
8 203
9 64
10 264
11 104
12 114
13 44
14 237
15 211
16 112
17 159
18 121
19 43
20 170

<precedence relations>
1,6
1,11
2,5
2,6
3,4
3,7
4,13
5,13
6,9
7,8
7,9
7,10
8,13
9,12
10,11
11,13
12,14
12,15
13,16
13,17
13,18
13,19
13,20

<end>
